% File represents an instance of a Composite Structure problem to be solved by a CP framework
% Created on 2025-03-26 10:41:28.608
T = 58;
n = 25;
m = 40;
edges = [(1, 2),
(6, 7),
(11, 12),
(16, 17),
(22, 21),
(2, 3),
(7, 8),
(13, 12),
(17, 18),
(22, 23),
(4, 3),
(9, 8),
(13, 14),
(19, 18),
(24, 23),
(4, 5),
(9, 10),
(15, 14),
(20, 19),
(24, 25),
(6, 1),
(6, 11),
(16, 11),
(16, 21),
(7, 2),
(7, 12),
(17, 12),
(22, 17),
(8, 3),
(13, 8),
(13, 18),
(23, 18),
(9, 4),
(9, 14),
(19, 14),
(24, 19),
(5, 10),
(15, 10),
(20, 15),
(20, 25)];
counts = [|6, 26, 6, 16,
|6, 24, 6, 14,
|6, 20, 6, 14,
|6, 24, 6, 14,
|6, 24, 6, 12,
|6, 28, 6, 16,
|6, 24, 6, 16,
|6, 24, 6, 14,
|6, 24, 6, 16,
|6, 22, 6, 12,
|6, 26, 6, 16,
|6, 24, 6, 12,
|8, 24, 8, 14,
|6, 24, 6, 12,
|6, 26, 6, 14,
|8, 26, 8, 16,
|8, 24, 8, 12,
|8, 24, 8, 10,
|8, 24, 8, 12,
|8, 26, 8, 16,
|8, 26, 8, 10,
|10, 26, 10, 12,
|8, 24, 8, 12,
|10, 26, 10, 12,
|8, 26, 8, 10|];
